2125506
0,74,36,86,77,80,101,107,27,26,39,129,54,33,90,115,160,191,178,35,34,111,132,154,168,150,93,61,49,195,228,161,66,38,30,188,207,7,21,22,41,65,98,99,53,17,55,174,52,81,18,29,56,69,200,199,197,194,163,148,91,189,134,73,156,165,100,106,204,19,162,158,24,94,192,2,50,208,205,229,37,133,10,28,64,83,113,190,78,131,130,123,121,118,164,46,57,212,58,167,171,44,51,181,196,153,173,222,63,193,96,137,59,136,143,15,177,126,70,82,48,116,144,155,43,47,16,13,14,184,12,138,166,172,180,187,60,42,97,109,125,142,75,211,226,110,124,45,119,224,72,225,4,219,176,9,217,85,159,151,135,92,157,179,128,227,216,3,223,102,11,87,141,145,149,169,170,185,89,20,152,108,32,202,213,214,183,103,203,220,1,114,120,112,147,84,79,105,76,186,5,175,210,8,67,88,182,139,31,71,25,95,209,6,62,206,198,68,122,127,221,23,218,104,201,215,140,40,146,117,0